p cnf 7230 18
-2592 -4132 -4162 -4164 -4168 4834 0
2592 -4835 0
-3234 -3776 -3778 -3784 4836 0
3234 -4837 0
4132 -4835 0
3778 -4837 0
3776 -4837 0
4162 -4835 0
3784 -4837 0
4164 -4835 0
-4836 4837 0
-4834 4835 0
4168 -4835 0
-4832 4833 0
4832 -4833 0
3770 -4839 0
3784 -4839 0
3778 -4839 0
